3 48 1 10
5 2 4 10 12 16 20 17 11 20 1 8 15 4 5 16 1 13 16 6 2 1 3 3 20 4 17 18 7 14 8 3 5 17 12 1 9 14 3 9 5 16 17 17 4 13 4 18 
0.88 5.13 5.79 7.81 6.57 4.75 4.36 1.91 0.87 1.49 1.95 1.64 2.32 3.5 1.96 7.8 2.76 5.92 2.61 6.07 5.35 1.31 0.73 3.09 1.23 0.84 6.3 4.94 1.57 3.77 4.44 3.6 4.27 1.9 4.22 4.72 7.47 2.24 2.49 4.14 0.38 0.85 0.78 6.78 7.53 6.53 4.14 1.89 
4 4 4 4 4 4 4 4 4 4 4 4 4 4 4 4 4 4 4 4 4 4 4 4 4 4 4 4 4 4 4 4 4 4 4 4 4 4 4 4 4 4 4 4 4 4 4 4 
2.28 6.57 3.24 6.74 1.89 4.79 5.34 1.72 1.05 7.52 4.84 4.11 6 4.79 2.16 7.36 7.8 2.05 2.7 5.38 7.9 4.96 2.84 4.18 3.69 7.01 6.16 7.62 5.57 2.94 0.63 6.9 2.47 4.36 3.48 4.73 2.94 5.41 3.96 3.1 0.98 2.43 5.89 7.29 1.8 1.91 4.17 1.01 
1 1 1 1 1 1 1 1 1 1 1 1 1 1 1 1 1 1 1 1 1 1 1 1 1 1 1 1 1 1 1 1 1 1 1 1 1 1 1 1 1 1 1 1 1 1 1 1 
1 1 1 1 1 1 1 1 1 1 1 1 1 1 1 1 1 1 1 1 1 1 1 1 1 1 1 1 1 1 1 1 1 1 1 1 1 1 1 1 1 1 1 1 1 1 1 1 
1 1 1 1 1 1 1 1 1 1 1 1 1 1 1 1 1 1 1 1 1 1 1 1 1 1 1 1 1 1 1 1 1 1 1 1 1 1 1 1 1 1 1 1 1 1 1 1 
0.01 0.01 0.01 0.01 0.01 0.01 0.01 0.01 0.01 0.01 0.01 0.01 0.01 0.01 0.01 0.01 0.01 0.01 0.01 0.01 0.01 0.01 0.01 0.01 0.01 0.01 0.01 0.01 0.01 0.01 0.01 0.01 0.01 0.01 0.01 0.01 0.01 0.01 0.01 0.01 0.01 0.01 0.01 0.01 0.01 0.01 0.01 0.01 
0.02 0.02 0.02 0.02 0.02 0.02 0.02 0.02 0.02 0.02 0.02 0.02 0.02 0.02 0.02 0.02 0.02 0.02 0.02 0.02 0.02 0.02 0.02 0.02 0.02 0.02 0.02 0.02 0.02 0.02 0.02 0.02 0.02 0.02 0.02 0.02 0.02 0.02 0.02 0.02 0.02 0.02 0.02 0.02 0.02 0.02 0.02 0.02 
1 1 1 1 1 1 1 1 1 1 1 1 1 1 1 1 1 1 1 1 1 1 1 1 1 1 1 1 1 1 1 1 1 1 1 1 1 1 1 1 1 1 1 1 1 1 1 1 
